p cnf 100 1
100 0
w 1 0.793998
w 2 1 0
w 2 -1 1
w 3 2 0.842476
w 3 -2 0.273111
w 4 3 0
w 4 -3 1
w 5 4 1
w 5 -4 0
w 6 5 0.667413
w 6 -5 0.748865
w 7 6 0.36236
w 7 -6 0.432848
w 8 7 0.608997
w 8 -7 0.399961
w 9 8 0.989484
w 9 -8 0.112762
w 10 9 0.23723
w 10 -9 0.602898
w 11 1 0.459736
w 11 -1 0.236935
w 12 11 2 0
w 12 11 -2 0
w 12 -11 2 0
w 12 -11 -2 1
w 13 12 3 1
w 13 12 -3 0
w 13 -12 3 1
w 13 -12 -3 0
w 14 13 4 0
w 14 13 -4 1
w 14 -13 4 1
w 14 -13 -4 0
w 15 14 5 0
w 15 14 -5 1
w 15 -14 5 0
w 15 -14 -5 0
w 16 15 6 1
w 16 15 -6 0
w 16 -15 6 1
w 16 -15 -6 1
w 17 16 7 0.468657
w 17 16 -7 0.881057
w 17 -16 7 0.39997
w 17 -16 -7 0.928392
w 18 17 8 1
w 18 17 -8 1
w 18 -17 8 0
w 18 -17 -8 1
w 19 18 9 0.844092
w 19 18 -9 0.512072
w 19 -18 9 0.352143
w 19 -18 -9 0.534781
w 20 19 10 0.955315
w 20 19 -10 0.118504
w 20 -19 10 0.198062
w 20 -19 -10 0.225899
w 21 11 1
w 21 -11 0
w 22 21 12 0.216529
w 22 21 -12 0.533816
w 22 -21 12 0.100787
w 22 -21 -12 0.381926
w 23 22 13 1
w 23 22 -13 0
w 23 -22 13 0
w 23 -22 -13 1
w 24 23 14 0.257128
w 24 23 -14 0.729264
w 24 -23 14 0.659135
w 24 -23 -14 0.704746
w 25 24 15 1
w 25 24 -15 1
w 25 -24 15 0
w 25 -24 -15 1
w 26 25 16 0.439273
w 26 25 -16 0.316305
w 26 -25 16 0.372882
w 26 -25 -16 0.40591
w 27 26 17 0
w 27 26 -17 1
w 27 -26 17 1
w 27 -26 -17 0
w 28 27 18 0.356364
w 28 27 -18 0.159007
w 28 -27 18 0.505347
w 28 -27 -18 0.457152
w 29 28 19 0.8321
w 29 28 -19 0.789366
w 29 -28 19 0.201019
w 29 -28 -19 0.689258
w 30 29 20 0.742162
w 30 29 -20 0.946386
w 30 -29 20 0.319501
w 30 -29 -20 0.401296
w 31 21 0.624191
w 31 -21 0.570773
w 32 31 22 0.551392
w 32 31 -22 0.534935
w 32 -31 22 0.483241
w 32 -31 -22 0.990664
w 33 32 23 0.856123
w 33 32 -23 0.396574
w 33 -32 23 0.12286
w 33 -32 -23 0.347509
w 34 33 24 1
w 34 33 -24 1
w 34 -33 24 0
w 34 -33 -24 0
w 35 34 25 0
w 35 34 -25 0
w 35 -34 25 1
w 35 -34 -25 0
w 36 35 26 1
w 36 35 -26 1
w 36 -35 26 0
w 36 -35 -26 0
w 37 36 27 1
w 37 36 -27 0
w 37 -36 27 0
w 37 -36 -27 0
w 38 37 28 0
w 38 37 -28 1
w 38 -37 28 0
w 38 -37 -28 0
w 39 38 29 0
w 39 38 -29 1
w 39 -38 29 0
w 39 -38 -29 1
w 40 39 30 0.0345954
w 40 39 -30 0.218303
w 40 -39 30 0.668443
w 40 -39 -30 0.0113393
w 41 31 0.145867
w 41 -31 0.445235
w 42 41 32 0.455391
w 42 41 -32 0.668496
w 42 -41 32 0.848177
w 42 -41 -32 0.454174
w 43 42 33 1
w 43 42 -33 0
w 43 -42 33 1
w 43 -42 -33 1
w 44 43 34 0.372183
w 44 43 -34 0.0208728
w 44 -43 34 0.237084
w 44 -43 -34 0.680765
w 45 44 35 0
w 45 44 -35 0
w 45 -44 35 0
w 45 -44 -35 1
w 46 45 36 0.166558
w 46 45 -36 0.470887
w 46 -45 36 0.372196
w 46 -45 -36 0.201154
w 47 46 37 0.0406395
w 47 46 -37 0.212493
w 47 -46 37 0.356489
w 47 -46 -37 0.186507
w 48 47 38 0.0137172
w 48 47 -38 0.641898
w 48 -47 38 0.326224
w 48 -47 -38 0.861894
w 49 48 39 1
w 49 48 -39 0
w 49 -48 39 1
w 49 -48 -39 0
w 50 49 40 0.491057
w 50 49 -40 0.795395
w 50 -49 40 0.779747
w 50 -49 -40 0.728141
w 51 41 1
w 51 -41 0
w 52 51 42 0.45617
w 52 51 -42 0.993077
w 52 -51 42 0.232479
w 52 -51 -42 0.132
w 53 52 43 1
w 53 52 -43 1
w 53 -52 43 0
w 53 -52 -43 1
w 54 53 44 0.573282
w 54 53 -44 0.749045
w 54 -53 44 0.731343
w 54 -53 -44 0.23101
w 55 54 45 0.373241
w 55 54 -45 0.557233
w 55 -54 45 0.624656
w 55 -54 -45 0.469313
w 56 55 46 1
w 56 55 -46 1
w 56 -55 46 0
w 56 -55 -46 0
w 57 56 47 0
w 57 56 -47 1
w 57 -56 47 0
w 57 -56 -47 0
w 58 57 48 1
w 58 57 -48 0
w 58 -57 48 1
w 58 -57 -48 0
w 59 58 49 0.199906
w 59 58 -49 0.809678
w 59 -58 49 0.152586
w 59 -58 -49 0.560695
w 60 59 50 0
w 60 59 -50 0
w 60 -59 50 1
w 60 -59 -50 0
w 61 51 1
w 61 -51 0
w 62 61 52 0.92222
w 62 61 -52 0.338698
w 62 -61 52 0.271319
w 62 -61 -52 0.287672
w 63 62 53 0.236046
w 63 62 -53 0.0763348
w 63 -62 53 0.633247
w 63 -62 -53 0.69183
w 64 63 54 0.439706
w 64 63 -54 0.875755
w 64 -63 54 0.720611
w 64 -63 -54 0.4869
w 65 64 55 0.236999
w 65 64 -55 0.527171
w 65 -64 55 0.8559
w 65 -64 -55 0.885388
w 66 65 56 0.665578
w 66 65 -56 0.0379735
w 66 -65 56 0.287773
w 66 -65 -56 0.867812
w 67 66 57 0.421751
w 67 66 -57 0.819092
w 67 -66 57 0.16416
w 67 -66 -57 0.786738
w 68 67 58 0.966166
w 68 67 -58 0.708958
w 68 -67 58 0.871832
w 68 -67 -58 0.237485
w 69 68 59 0.478368
w 69 68 -59 0.473532
w 69 -68 59 0.0729641
w 69 -68 -59 0.111615
w 70 69 60 0
w 70 69 -60 0
w 70 -69 60 1
w 70 -69 -60 0
w 71 61 0
w 71 -61 1
w 72 71 62 0.565393
w 72 71 -62 0.646605
w 72 -71 62 0.576356
w 72 -71 -62 0.292471
w 73 72 63 0
w 73 72 -63 1
w 73 -72 63 0
w 73 -72 -63 0
w 74 73 64 0.513885
w 74 73 -64 0.788732
w 74 -73 64 0.53222
w 74 -73 -64 0.480051
w 75 74 65 1
w 75 74 -65 1
w 75 -74 65 0
w 75 -74 -65 0
w 76 75 66 1
w 76 75 -66 1
w 76 -75 66 1
w 76 -75 -66 0
w 77 76 67 0
w 77 76 -67 1
w 77 -76 67 0
w 77 -76 -67 0
w 78 77 68 0.0219322
w 78 77 -68 0.441442
w 78 -77 68 0.14704
w 78 -77 -68 0.636261
w 79 78 69 1
w 79 78 -69 0
w 79 -78 69 1
w 79 -78 -69 1
w 80 79 70 1
w 80 79 -70 1
w 80 -79 70 0
w 80 -79 -70 1
w 81 71 0.804422
w 81 -71 0.144812
w 82 81 72 0.371705
w 82 81 -72 0.138847
w 82 -81 72 0.244955
w 82 -81 -72 0.672346
w 83 82 73 0.642502
w 83 82 -73 0.426954
w 83 -82 73 0.267781
w 83 -82 -73 0.830755
w 84 83 74 0.416753
w 84 83 -74 0.665612
w 84 -83 74 0.894463
w 84 -83 -74 0.858195
w 85 84 75 0.530725
w 85 84 -75 0.879882
w 85 -84 75 0.139686
w 85 -84 -75 0.516711
w 86 85 76 0.465807
w 86 85 -76 0.0165812
w 86 -85 76 0.715976
w 86 -85 -76 0.324147
w 87 86 77 0.0260784
w 87 86 -77 0.58654
w 87 -86 77 0.693961
w 87 -86 -77 0.8305
w 88 87 78 0.582486
w 88 87 -78 0.202206
w 88 -87 78 0.870198
w 88 -87 -78 0.827442
w 89 88 79 0.554401
w 89 88 -79 0.469944
w 89 -88 79 0.301506
w 89 -88 -79 0.822183
w 90 89 80 1
w 90 89 -80 1
w 90 -89 80 0
w 90 -89 -80 1
w 91 81 0
w 91 -81 1
w 92 91 82 0.977012
w 92 91 -82 0.918649
w 92 -91 82 0.115935
w 92 -91 -82 0.880575
w 93 92 83 0
w 93 92 -83 1
w 93 -92 83 1
w 93 -92 -83 1
w 94 93 84 0.295144
w 94 93 -84 0.82298
w 94 -93 84 0.453129
w 94 -93 -84 0.0264952
w 95 94 85 0
w 95 94 -85 1
w 95 -94 85 1
w 95 -94 -85 1
w 96 95 86 1
w 96 95 -86 1
w 96 -95 86 0
w 96 -95 -86 0
w 97 96 87 0
w 97 96 -87 0
w 97 -96 87 1
w 97 -96 -87 0
w 98 97 88 0.586357
w 98 97 -88 0.667473
w 98 -97 88 0.789088
w 98 -97 -88 0.466932
w 99 98 89 0
w 99 98 -89 1
w 99 -98 89 0
w 99 -98 -89 1
w 100 99 90 0.0556766
w 100 99 -90 0.873603
w 100 -99 90 0.13924
w 100 -99 -90 0.0821719